
Gurobi 11.0.3 (mac64[x86]) logging started Tue Apr  8 19:07:00 2025

Set parameter LogFile to value "Results/Conservative_experiment/sanity_check_v5.log"
Set parameter TimeLimit to value 84600
Set parameter Method to value 2
Set parameter Crossover to value 0
Set parameter BarConvTol to value 1e-10
Gurobi Optimizer version 11.0.3 build v11.0.3rc0 (mac64[x86] - Darwin 23.4.0 23E214)

CPU model: Intel(R) Core(TM) i7-1060NG7 CPU @ 1.20GHz
Thread count: 4 physical cores, 8 logical processors, using up to 8 threads

Optimize a model with 1494624 rows, 1917920 columns and 7072112 nonzeros
Model fingerprint: 0x8fb7c3ba
Coefficient statistics:
  Matrix range     [2e-01, 1e+00]
  Objective range  [6e-05, 5e+00]
  Bounds range     [0e+00, 0e+00]
  RHS range        [4e+00, 1e+03]
Presolve removed 1045852 rows and 1172588 columns (presolve time = 5s) ...
Presolve removed 1186528 rows and 1358816 columns
Presolve time: 7.07s
Presolved: 308096 rows, 559104 columns, 2051136 nonzeros
Ordering time: 0.28s

Barrier statistics:
 AA' NZ     : 6.920e+04
 Factor NZ  : 7.157e+05 (roughly 20 MB of memory)
 Factor Ops : 1.391e+08 (less than 1 second per iteration)
 Threads    : 4

                  Objective                Residual
Iter       Primal          Dual         Primal    Dual     Compl     Time
   0   1.44613145e+06  4.45071748e+09  5.03e+03 5.84e+03  8.46e+06     8s
   1  -5.03082077e+06  3.10359051e+09  1.65e+03 3.98e+03  2.01e+06     8s
   2  -6.60594499e+06  8.67224229e+08  3.55e+02 9.65e+01  1.56e+05     8s
   3  -6.67509686e+06  1.45811337e+08  2.90e+01 1.34e+00  1.28e+04     8s
   4  -2.86110255e+06  1.81955955e+07  2.44e+00 1.35e-01  1.29e+03     8s
   5  -3.53593250e+05  2.00330299e+06  2.10e-01 5.75e-03  1.17e+02     8s
   6  -1.81517189e+04  1.33542064e+05  4.54e-03 5.71e-05  5.71e+00     8s
   7  -5.75384844e+03  3.69717185e+03  1.39e-03 4.20e-11  5.01e-01     8s
   8  -1.61494297e+03  1.27912935e+03  3.99e-04 5.27e-11  1.50e-01     8s
   9  -4.31358700e+02  6.16989953e+02  1.40e-04 3.66e-11  5.38e-02     8s
  10   4.59639966e+01  4.65393791e+02  4.60e-05 3.45e-11  2.02e-02     8s
  11   2.33859055e+02  3.97695561e+02  1.62e-05 4.89e-11  7.64e-03     8s
  12   3.25564811e+02  3.81194399e+02  4.43e-06 6.06e-11  2.45e-03     8s
  13   3.59965396e+02  3.71764369e+02  7.94e-07 4.67e-11  5.01e-04     8s
  14   3.67848532e+02  3.69349725e+02  7.14e-08 5.17e-11  5.95e-05     8s
  15   3.68826816e+02  3.68962744e+02  5.53e-09 6.87e-11  5.28e-06     8s
  16   3.68928221e+02  3.68943773e+02  3.38e-10 4.25e-11  5.63e-07     8s
  17   3.68936597e+02  3.68937076e+02  1.23e-11 5.36e-11  1.76e-08     8s
  18   3.68937000e+02  3.68937000e+02  1.04e-11 5.15e-11  3.73e-12     8s
  19   3.68937000e+02  3.68937000e+02  4.66e-12 4.44e-11  2.63e-15     8s

Barrier solved model in 19 iterations and 8.46 seconds (4.02 work units)
Optimal objective 3.68937000e+02


Gurobi 11.0.3 (mac64[x86]) logging started Tue Apr  8 19:20:58 2025

Set parameter LogFile to value "Results/Conservative_experiment/sanity_check_v5.log"
Set parameter TimeLimit to value 84600
Set parameter Method to value 2
Set parameter Crossover to value 0
Set parameter BarConvTol to value 1e-10
Gurobi Optimizer version 11.0.3 build v11.0.3rc0 (mac64[x86] - Darwin 23.4.0 23E214)

CPU model: Intel(R) Core(TM) i7-1060NG7 CPU @ 1.20GHz
Thread count: 4 physical cores, 8 logical processors, using up to 8 threads

Optimize a model with 1494624 rows, 1917920 columns and 7072112 nonzeros
Model fingerprint: 0x8fb7c3ba
Coefficient statistics:
  Matrix range     [2e-01, 1e+00]
  Objective range  [6e-05, 5e+00]
  Bounds range     [0e+00, 0e+00]
  RHS range        [4e+00, 1e+03]
Presolve removed 1186400 rows and 1358592 columns (presolve time = 5s) ...
Presolve removed 1186528 rows and 1358816 columns
Presolve time: 5.69s
Presolved: 308096 rows, 559104 columns, 2051136 nonzeros
Ordering time: 0.19s

Barrier statistics:
 AA' NZ     : 6.920e+04
 Factor NZ  : 7.157e+05 (roughly 20 MB of memory)
 Factor Ops : 1.391e+08 (less than 1 second per iteration)
 Threads    : 4

                  Objective                Residual
Iter       Primal          Dual         Primal    Dual     Compl     Time
   0   1.44613145e+06  4.45071748e+09  5.03e+03 5.84e+03  8.46e+06     6s
   1  -5.03082077e+06  3.10359051e+09  1.65e+03 3.98e+03  2.01e+06     6s
   2  -6.60594499e+06  8.67224229e+08  3.55e+02 9.65e+01  1.56e+05     6s
   3  -6.67509686e+06  1.45811337e+08  2.90e+01 1.34e+00  1.28e+04     6s
   4  -2.86110255e+06  1.81955955e+07  2.44e+00 1.35e-01  1.29e+03     6s
   5  -3.53593250e+05  2.00330299e+06  2.10e-01 5.75e-03  1.17e+02     6s
   6  -1.81517189e+04  1.33542064e+05  4.54e-03 5.71e-05  5.71e+00     6s
   7  -5.75384844e+03  3.69717185e+03  1.39e-03 4.20e-11  5.01e-01     6s
   8  -1.61494297e+03  1.27912935e+03  3.99e-04 5.27e-11  1.50e-01     6s
   9  -4.31358700e+02  6.16989953e+02  1.40e-04 3.66e-11  5.38e-02     6s
  10   4.59639966e+01  4.65393791e+02  4.60e-05 3.45e-11  2.02e-02     7s
  11   2.33859055e+02  3.97695561e+02  1.62e-05 4.89e-11  7.64e-03     7s
  12   3.25564811e+02  3.81194399e+02  4.43e-06 6.06e-11  2.45e-03     7s
  13   3.59965396e+02  3.71764369e+02  7.94e-07 4.67e-11  5.01e-04     7s
  14   3.67848532e+02  3.69349725e+02  7.14e-08 5.17e-11  5.95e-05     7s
  15   3.68826816e+02  3.68962744e+02  5.53e-09 6.87e-11  5.28e-06     7s
  16   3.68928221e+02  3.68943773e+02  3.38e-10 4.25e-11  5.63e-07     7s
  17   3.68936597e+02  3.68937076e+02  1.23e-11 5.36e-11  1.76e-08     7s
  18   3.68937000e+02  3.68937000e+02  1.04e-11 5.15e-11  3.73e-12     7s
  19   3.68937000e+02  3.68937000e+02  4.66e-12 4.44e-11  2.63e-15     7s

Barrier solved model in 19 iterations and 6.73 seconds (4.02 work units)
Optimal objective 3.68937000e+02

